13
1 0 13
2 0 21
2 1 12
3 0 8
3 1 4
3 2 18
4 0 13
4 1 4
4 2 16
4 3 9
5 0 15
5 1 12
5 2 13
5 3 7
5 4 21
6 0 19
6 1 13
6 2 20
6 3 2
6 4 15
6 5 3
7 0 15
7 1 13
7 2 2
7 3 2
7 4 19
7 5 8
7 6 14
8 0 14
8 1 16
8 2 3
8 3 5
8 4 19
8 5 20
8 6 18
8 7 17
9 0 17
9 1 10
9 2 6
9 3 6
9 4 20
9 5 5
9 6 19
9 7 19
9 8 5
10 0 16
10 1 6
10 2 13
10 3 19
10 4 16
10 5 2
10 6 8
10 7 2
10 8 16
10 9 15
11 0 15
11 1 4
11 2 16
11 3 9
11 4 16
11 5 4
11 6 17
11 7 9
11 8 11
11 9 21
11 10 20
12 0 2
12 1 16
12 2 10
12 3 12
12 4 4
12 5 16
12 6 14
12 7 15
12 8 11
12 9 20
12 10 2
12 11 10
